161 112 111 110 114 115 116 130 129 137 138 128 127 126 125 124 69 70 68 67 66 65 72 71 123 122 120 121 117 106 105 104 103 547 546 545 544 543 541 542 107 109 108 173 174 175 172 170 171 169 180 181 179 182 186 188 187 178 177 176 540 538 539 537 536 484 485 483 482 481 480 479 478 477 476 475 567 566 565 564 563 562 561 549 548 550 551 101 102 98 99 100 552 553 554 555 91 92 93 94 97 96 95 118 119 73 74 75 77 76 64 62 63 61 60 59 58 57 81 80 79 78 88 89 90 87 86 85 82 83 56 55 53 54 52 51 84 50 49 48 47 46 45 44 43 42 39 40 41 556 557 558 559 560 34 35 38 37 36 33 32 30 31 22 29 28 27 26 25 24 21 23 12 13 14 15 16 11 10 9 7 8 17 18 19 20 568 569 570 474 473 472 471 470 469 468 467 466 465 464 496 497 519 518 495 494 524 525 493 492 491 526 523 522 521 520 517 515 516 506 507 508 302 301 303 304 306 305 318 317 319 320 321 322 323 324 325 326 329 328 327 367 366 342 365 368 369 370 372 373 374 315 314 316 313 312 451 311 310 309 308 307 505 504 503 502 498 501 500 499 452 461 462 463 460 459 458 571 573 572 6 5 0 4 3 2 1 457 456 455 438 437 436 435 434 433 432 430 429 428 431 445 444 443 439 454 453 440 441 450 449 442 446 448 447 381 380 379 378 377 376 375 395 396 371 394 393 391 392 390 389 388 397 398 399 400 406 407 408 405 404 409 384 383 385 387 386 382 425 424 426 427 423 422 421 420 419 417 418 410 411 412 356 402 403 401 360 359 358 357 355 354 353 352 413 414 416 415 351 350 349 348 347 362 361 363 364 346 345 344 343 341 340 330 331 332 333 339 338 337 336 335 334 283 284 285 286 287 280 281 282 279 278 277 276 288 289 290 291 292 275 274 273 272 271 268 269 270 293 294 295 296 267 297 298 266 265 264 263 262 261 260 259 258 299 300 257 256 255 253 254 252 251 250 249 248 241 242 243 244 245 247 246 238 239 240 237 509 510 511 512 513 514 527 528 236 235 234 232 233 530 529 490 486 487 535 534 488 489 531 532 533 231 230 229 228 227 189 225 226 190 191 219 218 220 221 222 224 223 217 216 215 214 213 212 211 210 209 193 192 185 183 184 194 195 196 197 205 206 207 208 203 204 202 198 199 200 201 165 164 166 167 163 168 162 160 159 156 155 154 153 157 158 145 146 147 148 152 149 150 151 142 143 144 141 140 139 136 135 134 133 132 131 113